98 125 65 105 81 63 154 80 56 61 91 123 24 19 156 150 78 178 149 151 120 185 194 37 172 69 198 175 35 44 30 165 85 0 136 4 176 121 145 180 102 21 86 82 192 146 94 58 84 9 3 49 40 67 143 1 135 133 32 138 126 167 161 112 59 70 90 169 107 119 188 55 181 191 171 131 184 96 104 164 168 137 155 115 147 25 186 60 114 10 134 108 89 62 66 26 11 50 42 57 6 74 51 88 12 117 73 83 76 53 18 31 127 116 52 140 34 99 28 132 2 64 77 27 163 92 160 111 71 68 7 152 179 54 20 14 110 109 196 48 189 187 159 106 13 142 190 79 124 128 22 122 8 130 29 113 183 15 75 182 17 103 47 144 101 95 33 166 45 93 23 72 157 41 153 148 100 195 46 158 173 170 97 36 177 193 199 43 87 129 38 39 118 5 162 141 174 16 139 197